50
120
100
97
96
90
86
84
83
82
79
78
76
74
72
70
70
70
68
68
67
67
66
66
66
65
64
64
63
63
62
59
57
57
57
55
54
54
51
49
48
47
43
41
40
40
37
37
34
33
32
32
